147
1000
366
301
567
231
493
590
265
430
136
66
534
480
425
741
440
321
218
194
307
177
139
58
111
585
295
731
292
267
478
184
572
326
54
81
160
745
311
519
120
255
301
14
705
390
149
335
386
341
669
14
643
162
466
367
239
204
35
221
295
318
64
236
1
44
230
440
68
645
151
502
491
482
111
236
126
357
272
711
699
241
182
93
304
202
122
205
255
510
108
276
187
163
440
303
15
62
184
300
225
69
108
281
234
496
249
649
728
528
582
326
330
12
284
26
449
244
330
581
28
146
529
432
221
121
119
161
269
405
379
147
220
346
387
225
84
30
428
665
507
68
466
164
157
644
494
320
270
